n=10;
hearts=44;
clubs=97;
spades=30;
diamonds=39;
blocked=10;
m=array2d(1..n, 1..n,[
	2,_,_,_,5,_,4,_,_,_,
	_,_,_,_,_,5,_,_,3,_,
	_,_,_,5,5,_,_,_,1,_,
	_,_,_,_,_,_,2,_,_,_,
	_,_,_,4,_,_,_,_,_,_,
	_,4,_,_,_,_,_,_,_,_,
	2,_,4,_,_,_,_,_,_,_,
	_,_,5,5,_,_,_,_,5,_,
	3,5,_,_,_,2,_,_,5,_,
	5,1,_,2,_,_,_,_,_,_
]);
